; benchmark generated from python API
(set-info :status unknown)
(declare-fun x_days () (_ BitVec 32))
(declare-fun y_days () (_ BitVec 32))
(assert
 (bvsle (_ bv4294930771 32) x_days))
(assert
 (bvsge (_ bv36523 32) x_days))
(assert
 (bvsle (_ bv4294930771 32) y_days))
(assert
 (bvsge (_ bv36523 32) y_days))
(assert
 (= x_days (_ bv7990 32)))
(assert
 (let ((?x5556 (bvadd x_days (_ bv730179 32))))
 (let ((?x2695 (bvsmod ?x5556 (_ bv146097 32))))
 (let ((?x5345 (bvsdiv ?x2695 (_ bv36524 32))))
 (let ((?x5515 (ite (bvsle (_ bv4 32) ?x5345) (_ bv3 32) ?x5345)))
 (let ((?x555 (bvsub ?x2695 (bvmul ?x5515 (_ bv36524 32)))))
 (let ((?x5543 (bvsmod ?x555 (_ bv1461 32))))
 (let ((?x5756 (bvsdiv ?x5543 (_ bv365 32))))
 (let ((?x3190 (ite (bvsle (_ bv4 32) ?x5756) (_ bv3 32) ?x5756)))
 (let ((?x890 (bvadd (bvadd (bvmul (bvsdiv ?x5556 (_ bv146097 32)) (_ bv400 32)) (bvmul ?x5515 (_ bv100 32))) (bvmul (bvsdiv ?x555 (_ bv1461 32)) (_ bv4 32)))))
 (let ((?x6947 (bvadd (bvadd ?x890 ?x3190) (_ bv1 32))))
 (let (($x534 (or (and (= (bvsmod ?x6947 (_ bv4 32)) (_ bv0 32)) (and (distinct (bvsmod ?x6947 (_ bv100 32)) (_ bv0 32)) true)) (= (bvsmod ?x6947 (_ bv400 32)) (_ bv0 32)))))
 (let ((?x859 (bvsub ?x5543 (bvmul ?x3190 (_ bv365 32)))))
 (let ((?x4228 (ite $x534 (_ bv31 32) (_ bv31 32))))
 (let (($x5602 (bvsge ?x859 ?x4228)))
 (let ((?x3784 (ite $x5602 (bvadd (bvsub ?x859 ?x4228) (_ bv1 32)) (bvadd (bvsub ?x859 (ite $x534 (_ bv0 32) (_ bv0 32))) (_ bv1 32)))))
 (let ((?x1122 (ite $x534 (_ bv60 32) (_ bv59 32))))
 (let (($x8217 (bvsge ?x859 ?x1122)))
 (let ((?x5271 (ite $x534 (_ bv91 32) (_ bv90 32))))
 (let (($x4286 (bvsge ?x859 ?x5271)))
 (let ((?x3047 (ite $x4286 (bvadd (bvsub ?x859 ?x5271) (_ bv1 32)) (ite $x8217 (bvadd (bvsub ?x859 ?x1122) (_ bv1 32)) ?x3784))))
 (let ((?x3949 (ite $x534 (_ bv121 32) (_ bv120 32))))
 (let (($x987 (bvsge ?x859 ?x3949)))
 (let ((?x4486 (ite $x534 (_ bv152 32) (_ bv151 32))))
 (let (($x1213 (bvsge ?x859 ?x4486)))
 (let ((?x787 (ite $x1213 (bvadd (bvsub ?x859 ?x4486) (_ bv1 32)) (ite $x987 (bvadd (bvsub ?x859 ?x3949) (_ bv1 32)) ?x3047))))
 (let ((?x582 (ite $x534 (_ bv182 32) (_ bv181 32))))
 (let (($x5526 (bvsge ?x859 ?x582)))
 (let ((?x2529 (ite $x534 (_ bv213 32) (_ bv212 32))))
 (let (($x5086 (bvsge ?x859 ?x2529)))
 (let ((?x884 (ite $x5086 (bvadd (bvsub ?x859 ?x2529) (_ bv1 32)) (ite $x5526 (bvadd (bvsub ?x859 ?x582) (_ bv1 32)) ?x787))))
 (let ((?x1138 (ite $x534 (_ bv244 32) (_ bv243 32))))
 (let (($x4549 (bvsge ?x859 ?x1138)))
 (let ((?x3867 (ite $x534 (_ bv274 32) (_ bv273 32))))
 (let (($x5310 (bvsge ?x859 ?x3867)))
 (let ((?x2762 (ite $x5310 (bvadd (bvsub ?x859 ?x3867) (_ bv1 32)) (ite $x4549 (bvadd (bvsub ?x859 ?x1138) (_ bv1 32)) ?x884))))
 (let ((?x3741 (ite $x534 (_ bv305 32) (_ bv304 32))))
 (let (($x3161 (bvsge ?x859 ?x3741)))
 (let ((?x3300 (ite $x534 (_ bv335 32) (_ bv334 32))))
 (let (($x3682 (bvsge ?x859 ?x3300)))
 (let ((?x507 (ite $x3682 (bvadd (bvsub ?x859 ?x3300) (_ bv1 32)) (ite $x3161 (bvadd (bvsub ?x859 ?x3741) (_ bv1 32)) ?x2762))))
 (let ((?x1576 (ite $x1213 (_ bv6 32) (ite $x987 (_ bv5 32) (ite $x4286 (_ bv4 32) (ite $x8217 (_ bv3 32) (ite $x5602 (_ bv2 32) (_ bv1 32))))))))
 (let ((?x699 (ite $x3161 (_ bv11 32) (ite $x5310 (_ bv10 32) (ite $x4549 (_ bv9 32) (ite $x5086 (_ bv8 32) (ite $x5526 (_ bv7 32) ?x1576)))))))
 (let ((?x1520 (bvadd (ite $x3682 (_ bv12 32) ?x699) (bvadd (bvmul (_ bv0 32) (_ bv12 32)) (_ bv13 32)))))
 (let ((?x5462 (bvsub (ite (bvuge ?x1520 (_ bv2147483648 32)) (bvsub ?x1520 (_ bv0 32)) ?x1520) (_ bv1 32))))
 (let ((?x5451 (bvsmod ?x5462 (_ bv12 32))))
 (let ((?x1408 (bvadd ?x5451 (_ bv1 32))))
 (let ((?x3133 (ite (or (= ?x1408 (_ bv4 32)) (= ?x1408 (_ bv6 32)) (= ?x1408 (_ bv9 32)) (= ?x1408 (_ bv11 32))) (_ bv30 32) (_ bv31 32))))
 (let ((?x3866 (bvsdiv ?x5462 (_ bv12 32))))
 (let ((?x8148 (ite (and (bvuge ?x5462 (_ bv2147483648 32)) (and (distinct (_ bv0 32) ?x5451) true)) (bvsub ?x3866 (_ bv1 32)) ?x3866)))
 (let ((?x4317 (bvadd ?x6947 (bvadd (_ bv0 32) ?x8148))))
 (let (($x1176 (or (and (= (bvsmod ?x4317 (_ bv4 32)) (_ bv0 32)) (and (distinct (bvsmod ?x4317 (_ bv100 32)) (_ bv0 32)) true)) (= (bvsmod ?x4317 (_ bv400 32)) (_ bv0 32)))))
 (let ((?x3546 (ite (= ?x1408 (_ bv2 32)) (ite $x1176 (_ bv29 32) (_ bv28 32)) ?x3133)))
 (let ((?x1289 (ite (bvsgt (_ bv1 32) ?x507) (_ bv1 32) (ite (bvsgt ?x507 ?x3546) ?x3546 ?x507))))
 (let ((?x2160 (ite (bvsgt (_ bv1 32) ?x1289) (_ bv1 32) (ite (bvsgt ?x1289 ?x3546) ?x3546 ?x1289))))
 (let ((?x1133 (ite (= (_ bv2 32) ?x1408) (ite $x1176 (_ bv31 32) (_ bv31 32)) (ite (= (_ bv1 32) ?x1408) (ite $x1176 (_ bv0 32) (_ bv0 32)) (_ bv0 32)))))
 (let ((?x4368 (ite (= (_ bv4 32) ?x1408) (ite $x1176 (_ bv91 32) (_ bv90 32)) (ite (= (_ bv3 32) ?x1408) (ite $x1176 (_ bv60 32) (_ bv59 32)) ?x1133))))
 (let ((?x3239 (ite (= (_ bv6 32) ?x1408) (ite $x1176 (_ bv152 32) (_ bv151 32)) (ite (= (_ bv5 32) ?x1408) (ite $x1176 (_ bv121 32) (_ bv120 32)) ?x4368))))
 (let ((?x2054 (ite (= (_ bv8 32) ?x1408) (ite $x1176 (_ bv213 32) (_ bv212 32)) (ite (= (_ bv7 32) ?x1408) (ite $x1176 (_ bv182 32) (_ bv181 32)) ?x3239))))
 (let ((?x4204 (ite (= (_ bv10 32) ?x1408) (ite $x1176 (_ bv274 32) (_ bv273 32)) (ite (= (_ bv9 32) ?x1408) (ite $x1176 (_ bv244 32) (_ bv243 32)) ?x2054))))
 (let ((?x6937 (ite (= (_ bv12 32) ?x1408) (ite $x1176 (_ bv335 32) (_ bv334 32)) (ite (= (_ bv11 32) ?x1408) (ite $x1176 (_ bv305 32) (_ bv304 32)) ?x4204))))
 (let ((?x996 (bvadd (bvmul (_ bv365 32) (bvsub ?x4317 (_ bv1 32))) (bvsdiv (bvsub ?x4317 (_ bv1 32)) (_ bv4 32)))))
 (let ((?x5713 (bvadd (bvsub ?x996 (bvsdiv (bvsub ?x4317 (_ bv1 32)) (_ bv100 32))) (bvsdiv (bvsub ?x4317 (_ bv1 32)) (_ bv400 32)))))
 (let ((?x778 (bvadd (bvadd (bvsub (bvadd (bvadd ?x5713 ?x6937) (bvsub ?x2160 (_ bv1 32))) (_ bv730179 32)) (_ bv40 32)) (_ bv730179 32))))
 (let ((?x5447 (bvsmod ?x778 (_ bv146097 32))))
 (let ((?x837 (bvsdiv ?x5447 (_ bv36524 32))))
 (let ((?x672 (ite (bvsle (_ bv4 32) ?x837) (_ bv3 32) ?x837)))
 (let ((?x3848 (bvsub ?x5447 (bvmul ?x672 (_ bv36524 32)))))
 (let ((?x8172 (bvsmod ?x3848 (_ bv1461 32))))
 (let ((?x5252 (bvsdiv ?x8172 (_ bv365 32))))
 (let ((?x2883 (ite (bvsle (_ bv4 32) ?x5252) (_ bv3 32) ?x5252)))
 (let ((?x2539 (bvadd (bvadd (bvmul (bvsdiv ?x778 (_ bv146097 32)) (_ bv400 32)) (bvmul ?x672 (_ bv100 32))) (bvmul (bvsdiv ?x3848 (_ bv1461 32)) (_ bv4 32)))))
 (let ((?x934 (bvadd (bvadd ?x2539 ?x2883) (_ bv1 32))))
 (let (($x3844 (or (and (= (bvsmod ?x934 (_ bv4 32)) (_ bv0 32)) (and (distinct (bvsmod ?x934 (_ bv100 32)) (_ bv0 32)) true)) (= (bvsmod ?x934 (_ bv400 32)) (_ bv0 32)))))
 (let ((?x6962 (bvsub ?x8172 (bvmul ?x2883 (_ bv365 32)))))
 (let ((?x1087 (ite $x3844 (_ bv31 32) (_ bv31 32))))
 (let (($x1066 (bvsge ?x6962 ?x1087)))
 (let ((?x2800 (ite $x1066 (bvadd (bvsub ?x6962 ?x1087) (_ bv1 32)) (bvadd (bvsub ?x6962 (ite $x3844 (_ bv0 32) (_ bv0 32))) (_ bv1 32)))))
 (let ((?x2451 (ite $x3844 (_ bv60 32) (_ bv59 32))))
 (let (($x5204 (bvsge ?x6962 ?x2451)))
 (let ((?x515 (ite $x3844 (_ bv91 32) (_ bv90 32))))
 (let (($x1219 (bvsge ?x6962 ?x515)))
 (let ((?x6148 (ite $x1219 (bvadd (bvsub ?x6962 ?x515) (_ bv1 32)) (ite $x5204 (bvadd (bvsub ?x6962 ?x2451) (_ bv1 32)) ?x2800))))
 (let ((?x6881 (ite $x3844 (_ bv121 32) (_ bv120 32))))
 (let (($x3233 (bvsge ?x6962 ?x6881)))
 (let ((?x455 (ite $x3844 (_ bv152 32) (_ bv151 32))))
 (let (($x1172 (bvsge ?x6962 ?x455)))
 (let ((?x487 (ite $x1172 (bvadd (bvsub ?x6962 ?x455) (_ bv1 32)) (ite $x3233 (bvadd (bvsub ?x6962 ?x6881) (_ bv1 32)) ?x6148))))
 (let ((?x3202 (ite $x3844 (_ bv182 32) (_ bv181 32))))
 (let (($x5983 (bvsge ?x6962 ?x3202)))
 (let ((?x8225 (ite $x3844 (_ bv213 32) (_ bv212 32))))
 (let (($x2821 (bvsge ?x6962 ?x8225)))
 (let ((?x3499 (ite $x2821 (bvadd (bvsub ?x6962 ?x8225) (_ bv1 32)) (ite $x5983 (bvadd (bvsub ?x6962 ?x3202) (_ bv1 32)) ?x487))))
 (let ((?x5284 (ite $x3844 (_ bv244 32) (_ bv243 32))))
 (let (($x808 (bvsge ?x6962 ?x5284)))
 (let ((?x4673 (ite $x3844 (_ bv274 32) (_ bv273 32))))
 (let (($x4917 (bvsge ?x6962 ?x4673)))
 (let ((?x6431 (ite $x4917 (bvadd (bvsub ?x6962 ?x4673) (_ bv1 32)) (ite $x808 (bvadd (bvsub ?x6962 ?x5284) (_ bv1 32)) ?x3499))))
 (let ((?x3632 (ite $x3844 (_ bv305 32) (_ bv304 32))))
 (let (($x1017 (bvsge ?x6962 ?x3632)))
 (let ((?x1645 (ite $x3844 (_ bv335 32) (_ bv334 32))))
 (let (($x8250 (bvsge ?x6962 ?x1645)))
 (let ((?x4181 (ite $x8250 (bvadd (bvsub ?x6962 ?x1645) (_ bv1 32)) (ite $x1017 (bvadd (bvsub ?x6962 ?x3632) (_ bv1 32)) ?x6431))))
 (let (($x804 (= (_ bv40 32) (_ bv0 32))))
 (let (($x2091 (and (= (bvsmod (ite $x804 ?x4317 ?x934) (_ bv4 32)) (_ bv0 32)) (and (distinct (bvsmod (ite $x804 ?x4317 ?x934) (_ bv100 32)) (_ bv0 32)) true))))
 (let (($x694 (or $x2091 (= (bvsmod (ite $x804 ?x4317 ?x934) (_ bv400 32)) (_ bv0 32)))))
 (let ((?x7036 (ite $x1172 (_ bv6 32) (ite $x3233 (_ bv5 32) (ite $x1219 (_ bv4 32) (ite $x5204 (_ bv3 32) (ite $x1066 (_ bv2 32) (_ bv1 32))))))))
 (let ((?x814 (ite $x1017 (_ bv11 32) (ite $x4917 (_ bv10 32) (ite $x808 (_ bv9 32) (ite $x2821 (_ bv8 32) (ite $x5983 (_ bv7 32) ?x7036)))))))
 (let ((?x1375 (ite $x8250 (_ bv12 32) ?x814)))
 (let ((?x1780 (ite $x804 ?x1408 ?x1375)))
 (let ((?x2166 (ite (= (_ bv2 32) ?x1780) (ite $x694 (_ bv31 32) (_ bv31 32)) (ite (= (_ bv1 32) ?x1780) (ite $x694 (_ bv0 32) (_ bv0 32)) (_ bv0 32)))))
 (let ((?x4538 (ite (= (_ bv4 32) ?x1780) (ite $x694 (_ bv91 32) (_ bv90 32)) (ite (= (_ bv3 32) ?x1780) (ite $x694 (_ bv60 32) (_ bv59 32)) ?x2166))))
 (let ((?x4008 (ite (= (_ bv6 32) ?x1780) (ite $x694 (_ bv152 32) (_ bv151 32)) (ite (= (_ bv5 32) ?x1780) (ite $x694 (_ bv121 32) (_ bv120 32)) ?x4538))))
 (let ((?x415 (ite (= (_ bv8 32) ?x1780) (ite $x694 (_ bv213 32) (_ bv212 32)) (ite (= (_ bv7 32) ?x1780) (ite $x694 (_ bv182 32) (_ bv181 32)) ?x4008))))
 (let ((?x980 (ite (= (_ bv10 32) ?x1780) (ite $x694 (_ bv274 32) (_ bv273 32)) (ite (= (_ bv9 32) ?x1780) (ite $x694 (_ bv244 32) (_ bv243 32)) ?x415))))
 (let ((?x3335 (ite (= (_ bv12 32) ?x1780) (ite $x694 (_ bv335 32) (_ bv334 32)) (ite (= (_ bv11 32) ?x1780) (ite $x694 (_ bv305 32) (_ bv304 32)) ?x980))))
 (let ((?x1932 (bvadd (bvmul (_ bv365 32) (bvsub (ite $x804 ?x4317 ?x934) (_ bv1 32))) (bvsdiv (bvsub (ite $x804 ?x4317 ?x934) (_ bv1 32)) (_ bv4 32)))))
 (let ((?x2832 (bvadd (bvsub ?x1932 (bvsdiv (bvsub (ite $x804 ?x4317 ?x934) (_ bv1 32)) (_ bv100 32))) (bvsdiv (bvsub (ite $x804 ?x4317 ?x934) (_ bv1 32)) (_ bv400 32)))))
 (let ((?x1075 (bvsub (bvadd (bvadd ?x2832 ?x3335) (bvsub (ite $x804 ?x2160 ?x4181) (_ bv1 32))) (_ bv730179 32))))
 (= y_days ?x1075))))))))))))))))))))))))))))))))))))))))))))))))))))))))))))))))))))))))))))))))))))))))))))))))))))))))))))))))))))))))
(assert
 (not (= y_days (_ bv8395 32))))
(check-sat)
